NAME /Users/henri/Research/solvers/instances/idol-instances/robust/collection/cbp_Subramanyam_et_al_2020/CapBud_N30_13/models/uncertain_technology_matrix/
ROWS
 N  OBJ
 L  capacity
 L  c_6300
 L  c_6301
 L  c_6302
 L  c_6303
 L  c_6304
 L  c_6305
 L  c_6306
 L  c_6307
 L  c_6308
 L  c_6309
 L  c_6310
 L  c_6311
 L  c_6312
 L  c_6313
 L  c_6314
 L  c_6315
 L  c_6316
 L  c_6317
 L  c_6318
 L  c_6319
 L  c_6320
 L  c_6321
 L  c_6322
 L  c_6323
 L  c_6324
 L  c_6325
 L  c_6326
 L  c_6327
 L  c_6328
 L  c_6329
COLUMNS
    MARKER    'MARKER'                 'INTORG'
    x_0        OBJ        -6.96481
    x_0        c_6300     1
    x_0        capacity   1.39296
    x_1        OBJ        -9.8474
    x_1        c_6301     1
    x_1        capacity   1.96948
    x_2        OBJ        -4.83608
    x_2        c_6302     1
    x_2        capacity   0.967217
    x_3        OBJ        -1.77941
    x_3        c_6303     1
    x_3        capacity   0.355882
    x_4        OBJ        -6.46893
    x_4        c_6304     1
    x_4        capacity   1.29379
    x_5        OBJ        -0.882748
    x_5        c_6305     1
    x_5        capacity   0.17655
    x_6        OBJ        -7.31996
    x_6        c_6306     1
    x_6        capacity   1.46399
    x_7        OBJ        -3.95965
    x_7        c_6307     1
    x_7        capacity   0.791931
    x_8        OBJ        -7.15873
    x_8        c_6308     1
    x_8        capacity   1.43175
    x_9        OBJ        -0.36888
    x_9        c_6309     1
    x_9        capacity   0.0737759
    x_10       OBJ        -4.08453
    x_10       c_6310     1
    x_10       capacity   0.816905
    x_11       OBJ        -3.03617
    x_11       c_6311     1
    x_11       capacity   0.607234
    x_12       OBJ        -9.12584
    x_12       c_6312     1
    x_12       capacity   1.82517
    x_13       OBJ        -6.72956
    x_13       c_6313     1
    x_13       capacity   1.34591
    x_14       OBJ        -4.0859
    x_14       c_6314     1
    x_14       capacity   0.817179
    x_15       OBJ        -4.23974
    x_15       c_6315     1
    x_15       capacity   0.847948
    x_16       OBJ        -6.48251
    x_16       c_6316     1
    x_16       capacity   1.2965
    x_17       OBJ        -2.70343
    x_17       c_6317     1
    x_17       capacity   0.540687
    x_18       OBJ        -0.017328
    x_18       c_6318     1
    x_18       capacity   0.00346561
    x_19       OBJ        -0.673911
    x_19       c_6319     1
    x_19       capacity   0.134782
    x_20       OBJ        -3.53283
    x_20       c_6320     1
    x_20       capacity   0.706566
    x_21       OBJ        -1.02613
    x_21       c_6321     1
    x_21       capacity   0.205227
    x_22       OBJ        -0.471997
    x_22       c_6322     1
    x_22       capacity   0.0943995
    x_23       OBJ        -4.52778
    x_23       c_6323     1
    x_23       capacity   0.905556
    x_24       OBJ        -8.07502
    x_24       c_6324     1
    x_24       capacity   1.615
    x_25       OBJ        -5.98593
    x_25       c_6325     1
    x_25       capacity   1.19719
    x_26       OBJ        -4.70802
    x_26       c_6326     1
    x_26       capacity   0.941604
    x_27       OBJ        -2.01265
    x_27       c_6327     1
    x_27       capacity   0.40253
    x_28       OBJ        -9.25955
    x_28       c_6328     1
    x_28       capacity   1.85191
    x_29       OBJ        -8.28016
    x_29       c_6329     1
    x_29       capacity   1.65603
    y_0        OBJ        -5.57185
    y_0        c_6300     1
    y_0        capacity   1.39296
    y_1        OBJ        -7.87792
    y_1        c_6301     1
    y_1        capacity   1.96948
    y_2        OBJ        -3.86887
    y_2        c_6302     1
    y_2        capacity   0.967217
    y_3        OBJ        -1.42353
    y_3        c_6303     1
    y_3        capacity   0.355882
    y_4        OBJ        -5.17514
    y_4        c_6304     1
    y_4        capacity   1.29379
    y_5        OBJ        -0.706198
    y_5        c_6305     1
    y_5        capacity   0.17655
    y_6        OBJ        -5.85596
    y_6        c_6306     1
    y_6        capacity   1.46399
    y_7        OBJ        -3.16772
    y_7        c_6307     1
    y_7        capacity   0.791931
    y_8        OBJ        -5.72699
    y_8        c_6308     1
    y_8        capacity   1.43175
    y_9        OBJ        -0.295104
    y_9        c_6309     1
    y_9        capacity   0.0737759
    y_10       OBJ        -3.26762
    y_10       c_6310     1
    y_10       capacity   0.816905
    y_11       OBJ        -2.42894
    y_11       c_6311     1
    y_11       capacity   0.607234
    y_12       OBJ        -7.30067
    y_12       c_6312     1
    y_12       capacity   1.82517
    y_13       OBJ        -5.38365
    y_13       c_6313     1
    y_13       capacity   1.34591
    y_14       OBJ        -3.26872
    y_14       c_6314     1
    y_14       capacity   0.817179
    y_15       OBJ        -3.39179
    y_15       c_6315     1
    y_15       capacity   0.847948
    y_16       OBJ        -5.18601
    y_16       c_6316     1
    y_16       capacity   1.2965
    y_17       OBJ        -2.16275
    y_17       c_6317     1
    y_17       capacity   0.540687
    y_18       OBJ        -0.0138624
    y_18       c_6318     1
    y_18       capacity   0.00346561
    y_19       OBJ        -0.539129
    y_19       c_6319     1
    y_19       capacity   0.134782
    y_20       OBJ        -2.82626
    y_20       c_6320     1
    y_20       capacity   0.706566
    y_21       OBJ        -0.820906
    y_21       c_6321     1
    y_21       capacity   0.205227
    y_22       OBJ        -0.377598
    y_22       c_6322     1
    y_22       capacity   0.0943995
    y_23       OBJ        -3.62222
    y_23       c_6323     1
    y_23       capacity   0.905556
    y_24       OBJ        -6.46002
    y_24       c_6324     1
    y_24       capacity   1.615
    y_25       OBJ        -4.78874
    y_25       c_6325     1
    y_25       capacity   1.19719
    y_26       OBJ        -3.76641
    y_26       c_6326     1
    y_26       capacity   0.941604
    y_27       OBJ        -1.61012
    y_27       c_6327     1
    y_27       capacity   0.40253
    y_28       OBJ        -7.40764
    y_28       c_6328     1
    y_28       capacity   1.85191
    y_29       OBJ        -6.62413
    y_29       c_6329     1
    y_29       capacity   1.65603
    MARKER    'MARKER'                 'INTEND'
RHS
    RHS       capacity   69.3228
    RHS       c_6300     1
    RHS       c_6301     1
    RHS       c_6302     1
    RHS       c_6303     1
    RHS       c_6304     1
    RHS       c_6305     1
    RHS       c_6306     1
    RHS       c_6307     1
    RHS       c_6308     1
    RHS       c_6309     1
    RHS       c_6310     1
    RHS       c_6311     1
    RHS       c_6312     1
    RHS       c_6313     1
    RHS       c_6314     1
    RHS       c_6315     1
    RHS       c_6316     1
    RHS       c_6317     1
    RHS       c_6318     1
    RHS       c_6319     1
    RHS       c_6320     1
    RHS       c_6321     1
    RHS       c_6322     1
    RHS       c_6323     1
    RHS       c_6324     1
    RHS       c_6325     1
    RHS       c_6326     1
    RHS       c_6327     1
    RHS       c_6328     1
    RHS       c_6329     1
BOUNDS
 LI BND       x_0        0
 UI BND       x_0        1
 LI BND       x_1        0
 UI BND       x_1        1
 LI BND       x_2        0
 UI BND       x_2        1
 LI BND       x_3        0
 UI BND       x_3        1
 LI BND       x_4        0
 UI BND       x_4        1
 LI BND       x_5        0
 UI BND       x_5        1
 LI BND       x_6        0
 UI BND       x_6        1
 LI BND       x_7        0
 UI BND       x_7        1
 LI BND       x_8        0
 UI BND       x_8        1
 LI BND       x_9        0
 UI BND       x_9        1
 LI BND       x_10       0
 UI BND       x_10       1
 LI BND       x_11       0
 UI BND       x_11       1
 LI BND       x_12       0
 UI BND       x_12       1
 LI BND       x_13       0
 UI BND       x_13       1
 LI BND       x_14       0
 UI BND       x_14       1
 LI BND       x_15       0
 UI BND       x_15       1
 LI BND       x_16       0
 UI BND       x_16       1
 LI BND       x_17       0
 UI BND       x_17       1
 LI BND       x_18       0
 UI BND       x_18       1
 LI BND       x_19       0
 UI BND       x_19       1
 LI BND       x_20       0
 UI BND       x_20       1
 LI BND       x_21       0
 UI BND       x_21       1
 LI BND       x_22       0
 UI BND       x_22       1
 LI BND       x_23       0
 UI BND       x_23       1
 LI BND       x_24       0
 UI BND       x_24       1
 LI BND       x_25       0
 UI BND       x_25       1
 LI BND       x_26       0
 UI BND       x_26       1
 LI BND       x_27       0
 UI BND       x_27       1
 LI BND       x_28       0
 UI BND       x_28       1
 LI BND       x_29       0
 UI BND       x_29       1
 LI BND       y_0        0
 UI BND       y_0        1
 LI BND       y_1        0
 UI BND       y_1        1
 LI BND       y_2        0
 UI BND       y_2        1
 LI BND       y_3        0
 UI BND       y_3        1
 LI BND       y_4        0
 UI BND       y_4        1
 LI BND       y_5        0
 UI BND       y_5        1
 LI BND       y_6        0
 UI BND       y_6        1
 LI BND       y_7        0
 UI BND       y_7        1
 LI BND       y_8        0
 UI BND       y_8        1
 LI BND       y_9        0
 UI BND       y_9        1
 LI BND       y_10       0
 UI BND       y_10       1
 LI BND       y_11       0
 UI BND       y_11       1
 LI BND       y_12       0
 UI BND       y_12       1
 LI BND       y_13       0
 UI BND       y_13       1
 LI BND       y_14       0
 UI BND       y_14       1
 LI BND       y_15       0
 UI BND       y_15       1
 LI BND       y_16       0
 UI BND       y_16       1
 LI BND       y_17       0
 UI BND       y_17       1
 LI BND       y_18       0
 UI BND       y_18       1
 LI BND       y_19       0
 UI BND       y_19       1
 LI BND       y_20       0
 UI BND       y_20       1
 LI BND       y_21       0
 UI BND       y_21       1
 LI BND       y_22       0
 UI BND       y_22       1
 LI BND       y_23       0
 UI BND       y_23       1
 LI BND       y_24       0
 UI BND       y_24       1
 LI BND       y_25       0
 UI BND       y_25       1
 LI BND       y_26       0
 UI BND       y_26       1
 LI BND       y_27       0
 UI BND       y_27       1
 LI BND       y_28       0
 UI BND       y_28       1
 LI BND       y_29       0
 UI BND       y_29       1
ENDATA
